NAME: random17
TYPE: TSP
DIMENSION: 17
EDGE_WEIGHT_TYPE: EXPLICIT
EDGE_WEIGHT_FORMAT: FULL_MATRIX
EDGE_WEIGHT_SECTION
0 1090 1090 1090 31 1090 1090 27 27 31 3 1090 1090 1090 1090 1090 1090
1090 0 1090 1090 33 1090 1090 1090 1090 1090 1090 1090 24 4 1090 1090 38
1090 1090 0 17 1090 62 23 1090 24 1090 1090 41 1090 1090 37 1090 1090
1090 1090 17 0 1090 1090 1090 1090 9 33 1090 1090 1090 1090 29 1090 1090
31 33 1090 1090 0 1090 1090 29 1090 45 1090 1090 44 32 1090 1090 1090
1090 1090 62 1090 1090 0 82 1090 1090 1090 1090 1090 1090 79 33 1090 38
1090 1090 23 1090 1090 82 0 1090 1090 1090 1090 48 1090 1090 1090 67 1090
27 1090 1090 1090 29 1090 1090 0 1090 1090 26 1090 1090 1090 1090 23 1090
27 1090 24 9 1090 1090 1090 1090 0 32 26 25 1090 1090 1090 1090 1090
31 1090 1090 33 45 1090 1090 1090 32 0 1090 1090 15 1090 23 1090 22
3 1090 1090 1090 1090 1090 1090 26 26 1090 0 25 1090 1090 1090 29 1090
1090 1090 41 1090 1090 1090 48 1090 25 1090 25 0 1090 1090 1090 20 1090
1090 24 1090 1090 44 1090 1090 1090 1090 15 1090 1090 0 1090 1090 1090 16
1090 4 1090 1090 32 79 1090 1090 1090 1090 1090 1090 1090 0 1090 1090 42
1090 1090 37 29 1090 33 1090 1090 1090 23 1090 1090 1090 1090 0 1090 26
1090 1090 1090 1090 1090 1090 67 23 1090 1090 29 20 1090 1090 1090 0 1090
1090 38 1090 1090 1090 38 1090 1090 1090 22 1090 1090 16 42 26 1090 0
EOF
